79
0 63 25 20 35 19 17 73 50 40 
2 23 16 47 18 6 64 62 29 51 
76 32 72 55 37 36 34 30 66 11 
46 1 45 67 68 74 4 48 21 8 
9 57 10 61 15 26 24 69 77 59 
27 65 42 52 41 56 22 60 70 44 
39 5 3 14 71 12 75 31 13 28 
43 33 49 53 54 78 7 38 58 
